Version identifier: 12.10.0.0 | 2019-11-26 | 843d4de
CPXPARAM_WorkMem                                 28672
Tried aggregator 2 times.
Aggregator did 75 substitutions.
Reduced MIP has 395 rows, 450 columns, and 1910 nonzeros.
Reduced MIP has 450 binaries, 0 generals, 0 SOSs, and 0 indicators.
Presolve time = 0,00 sec. (1,81 ticks)
Found incumbent of value 2140,000000 after 0,01 sec. (2,81 ticks)
Probing time = 0,00 sec. (0,98 ticks)
Tried aggregator 1 time.
Detecting symmetries...
MIP Presolve eliminated 65 rows and 0 columns.
MIP Presolve added 130 rows and 0 columns.
Reduced MIP has 460 rows, 450 columns, and 1975 nonzeros.
Reduced MIP has 450 binaries, 0 generals, 0 SOSs, and 0 indicators.
Presolve time = 0,00 sec. (2,47 ticks)
Probing time = 0,00 sec. (0,96 ticks)
Clique table members: 1400.
MIP emphasis: balance optimality and feasibility.
MIP search method: dynamic search.
Parallel mode: deterministic, using up to 16 threads.
Root relaxation solution time = 0,01 sec. (1,77 ticks)

        Nodes                                         Cuts/
   Node  Left     Objective  IInf  Best Integer    Best Bound    ItCnt     Gap

*     0+    0                         2140,0000        0,0000           100,00%
*     0+    0                         1036,0000        0,0000           100,00%
*     0+    0                          996,0000        0,0000           100,00%
      0     0      428,0000   292      996,0000      428,0000      138   57,03%
*     0+    0                          990,0000      428,0000            56,77%
      0     0      428,0000   292      990,0000      Cuts: 19      168   56,77%
      0     0      431,1061   292      990,0000     Cuts: 151      222   56,45%
      0     0      435,3650   292      990,0000     Cuts: 215      308   56,02%
      0     0      436,7338   292      990,0000     Cuts: 215      333   55,89%
      0     0      437,6460   292      990,0000       Cuts: 8      369   55,79%
*     0+    0                          915,0000      437,6460            52,17%
      0     0      521,3587   292      915,0000     Cuts: 215      719   43,02%
      0     0      525,7885   292      915,0000     Cuts: 110      811   42,54%
      0     0      526,7595   292      915,0000      Cuts: 11      896   42,43%
      0     0      527,5317   292      915,0000      Cuts: 41      919   42,35%
      0     0      528,1195   292      915,0000   ZeroHalf: 6      942   42,28%
      0     0      528,3537   292      915,0000       Cuts: 5      959   42,26%
      0     0      528,3855   292      915,0000      Cuts: 12      969   42,25%
      0     2      528,3855   331      915,0000      528,3855      969   42,25%
Elapsed time = 0,28 sec. (188,40 ticks, tree = 0,02 MB, solutions = 5)
   1387   972      872,9500    45      915,0000      606,0768    59194   33,76%
   1600   712        cutoff            915,0000      625,4427    38484   31,65%
*  2152+ 1279                          906,0000      625,4427            30,97%
   2914  1595      874,3667    24      906,0000      672,6789   101695   25,75%
   4451  2847      831,2817   136      906,0000      746,4146   177500   17,61%

Performing restart 1

Repeating presolve.
Tried aggregator 2 times.
MIP Presolve eliminated 63 rows and 30 columns.
MIP Presolve added 56 rows and 0 columns.
MIP Presolve modified 92 coefficients.
Aggregator did 4 substitutions.
Reduced MIP has 449 rows, 412 columns, and 1739 nonzeros.
Reduced MIP has 412 binaries, 0 generals, 0 SOSs, and 0 indicators.
Presolve time = 0,01 sec. (2,47 ticks)
Tried aggregator 1 time.
Reduced MIP has 449 rows, 412 columns, and 1739 nonzeros.
Reduced MIP has 412 binaries, 0 generals, 0 SOSs, and 0 indicators.
Presolve time = 0,00 sec. (1,48 ticks)
Represolve time = 0,02 sec. (10,78 ticks)
   4452     0      539,7383   325      906,0000      Cuts: 15   198923   16,64%
   4452     0      544,4156   325      906,0000      Cuts: 15   199012   16,64%
   4452     0      546,8685   325      906,0000       Cuts: 8   199046   16,64%
   4452     0      548,4923   325      906,0000      Cuts: 10   199099   16,64%
   4452     0      555,7051   325      906,0000      Cuts: 15   199195   16,64%
   4452     2      555,7051   325      906,0000      755,2293   199195   16,64%
   4459     6      569,7442   321      906,0000      755,2293   200088   16,64%
   4753    64      808,7137   140      906,0000      755,2293   210550   16,64%
   6114   974      628,1878   298      906,0000      755,2293   283441   16,64%
   7565  2254      787,5206   237      906,0000      755,2293   354031   16,64%

Performing restart 2

Repeating presolve.
Tried aggregator 1 time.
Reduced MIP has 449 rows, 412 columns, and 1739 nonzeros.
Reduced MIP has 412 binaries, 0 generals, 0 SOSs, and 0 indicators.
Presolve time = 0,00 sec. (1,06 ticks)
Tried aggregator 1 time.
Reduced MIP has 449 rows, 412 columns, and 1739 nonzeros.
Reduced MIP has 412 binaries, 0 generals, 0 SOSs, and 0 indicators.
Presolve time = 0,00 sec. (1,48 ticks)
Represolve time = 0,02 sec. (13,83 ticks)
  10116     0      561,2072   411      906,0000      Cuts: 14   541323   16,64%
  10116     0      563,6039   411      906,0000      Cuts: 15   541447   16,64%
  10116     0      566,0647   411      906,0000       Cuts: 9   541578   16,64%
  10116     0      570,2218   411      906,0000      Cuts: 15   541747   16,64%
  10116     0      572,1912   411      906,0000      Cuts: 10   541879   16,64%
  10116     0      574,6458   411      906,0000      Cuts: 24   542055   16,64%
  10116     0      575,6024   411      906,0000      Cuts: 12   542160   16,64%
  10116     0      576,6205   411      906,0000       Cuts: 8   542255   16,64%
  10116     2      576,6205   410      906,0000      755,2293   542255   16,64%
Elapsed time = 4,63 sec. (4109,98 ticks, tree = 0,02 MB, solutions = 6)
  18464  5882      875,2579    94      906,0000      778,1152   748089   14,12%
  27096 10005        cutoff            906,0000      815,4535   974521    9,99%
  33413 10230      892,5347    71      906,0000      844,9763  1224265    6,74%
  40452  5741      904,6032    59      906,0000      880,6443  1444546    2,80%

Clique cuts applied:  36
Cover cuts applied:  628
Flow cuts applied:  14
Mixed integer rounding cuts applied:  153
Zero-half cuts applied:  14
Lift and project cuts applied:  28
Gomory fractional cuts applied:  52

Root node processing (before b&c):
  Real time             =    0,28 sec. (187,93 ticks)
Parallel b&c, 16 threads:
  Real time             =    9,69 sec. (8123,20 ticks)
  Sync time (average)   =    2,21 sec.
  Wait time (average)   =    0,01 sec.
                          ------------
Total (root+branch&cut) =    9,96 sec. (8311,13 ticks)
